NAME : mar30_1000_2
COMMENT : Data set with 30 points
COMMENT : CIn-UFPE
COMMENT : Contributed by Marcelo Lacerda
TYPE : TSP
DIMENSION : 30
EDGE_WEIGHT_TYPE : EUC_2D
NODE_COORD_SECTION
1 914 979
2 459 419
3 432 369
4 955 621
5 279 211
6 684 684
7 879 64
8 417 793
9 494 623
10 823 900
11 203 800
12 982 383
13 554 627
14 621 653
15 76 240
16 802 526
17 812 380
18 293 442
19 377 638
20 503 729
21 344 737
22 816 350
23 51 303
24 898 322
25 44 378
26 589 164
27 651 487
28 844 671
29 633 828
30 232 392
EOF
